(set-logic QF_S)
(declare-fun var0 () String)
(declare-fun var1 () Int)
(declare-fun var2 () String)
(declare-fun var3 () Int)
(declare-fun var4 () Int)
(declare-fun var5 () String)
(declare-fun var6 () String)
(declare-fun var7 () Int)
(assert (< (str.indexof "B4G}Y=<'D," var0 var1) (str.to.int (str.substr var2 var3 var4))))
(assert (str.suffixof var5 "J|H(L-=B{B"))
(assert (str.prefixof (str.at var6 var7) (str.replace var5 var6 var6)))
(assert (< (str.indexof var0 var6 var1) (str.len var2)))
(check-sat)